
  22    4
  10   10   10   10

   0   0   0   0   0   6 2 3 4 7 10 13 
   1  10  10  10  10   6 20 19 18 12 9 8 
   7  10  10  10  10   5 20 19 18 8 6 
   9  10  10  10  10   4 19 18 9 5 
   7  10  10  10  10   2 12 8 
   7  10  10  10  10   4 21 17 16 15 
   5  10  10  10  10   4 17 16 15 14 
   9  10  10  10  10   2 16 11 
   2  10  10  10  10   2 17 15 
   5  10  10  10  10   2 16 14 
   8  10  10  10  10   1 14 
   7  10  10  10  10   1 15 
   2  10  10  10  10   1 14 
   5  10  10  10  10   1 22
   7  10  10  10  10   1 22
   4  10  10  10  10   1 22
   6  10  10  10  10   1 22
  10  10  10  10  10   1 22
   1  10  10  10  10   1 22
   6  10  10  10  10   1 22
   8  10  10  10  10   1 22
   0   0   0   0   0   0 
